
;this file is automatically generated: Tue Mar 02 16:20:04 CST 2021

;declarations generated

(declare-fun oclExcludes ( Int Int) Bool)
(declare-fun Cardinality ( Int) Int)
(declare-fun type_00a371d5_d585_4b0f_9579_0eed2797a930_Class20 ( Int) Bool)
(declare-fun type_00a371d5_d585_4b0f_9579_0eed2797a930_Class22 ( Int) Bool)
(declare-fun type_00a371d5_d585_4b0f_9579_0eed2797a930_Class21 ( Int) Bool)
(declare-fun type_00a371d5_d585_4b0f_9579_0eed2797a930_Class17 ( Int) Bool)
(declare-fun type_00a371d5_d585_4b0f_9579_0eed2797a930_Class16 ( Int) Bool)
(declare-fun type_00a371d5_d585_4b0f_9579_0eed2797a930_Class19 ( Int) Bool)
(declare-fun type_00a371d5_d585_4b0f_9579_0eed2797a930_Class18 ( Int) Bool)
(declare-fun type_00a371d5_d585_4b0f_9579_0eed2797a930_Class13 ( Int) Bool)
(declare-fun type_00a371d5_d585_4b0f_9579_0eed2797a930_Class12 ( Int) Bool)
(declare-fun type_00a371d5_d585_4b0f_9579_0eed2797a930_Class15 ( Int) Bool)
(declare-fun type_00a371d5_d585_4b0f_9579_0eed2797a930_Class14 ( Int) Bool)
(declare-fun type_00a371d5_d585_4b0f_9579_0eed2797a930_Class11 ( Int) Bool)
(declare-fun type_00a371d5_d585_4b0f_9579_0eed2797a930_Class10 ( Int) Bool)
(declare-fun type_00a371d5_d585_4b0f_9579_0eed2797a930_Class8 ( Int) Bool)
(declare-fun type_00a371d5_d585_4b0f_9579_0eed2797a930_Class7 ( Int) Bool)
(declare-fun type_00a371d5_d585_4b0f_9579_0eed2797a930_Class9 ( Int) Bool)
(declare-fun type_00a371d5_d585_4b0f_9579_0eed2797a930_Class4 ( Int) Bool)
(declare-fun type_00a371d5_d585_4b0f_9579_0eed2797a930_Class3 ( Int) Bool)
(declare-fun type_00a371d5_d585_4b0f_9579_0eed2797a930_Class6 ( Int) Bool)
(declare-fun type_00a371d5_d585_4b0f_9579_0eed2797a930_Class5 ( Int) Bool)
(declare-fun type_00a371d5_d585_4b0f_9579_0eed2797a930_Class0 ( Int) Bool)
(declare-fun type_00a371d5_d585_4b0f_9579_0eed2797a930_Class2 ( Int) Bool)
(declare-fun type_00a371d5_d585_4b0f_9579_0eed2797a930_Class1 ( Int) Bool)
(declare-fun type_00a371d5_d585_4b0f_9579_0eed2797a930_Class28 ( Int) Bool)
(declare-fun type_00a371d5_d585_4b0f_9579_0eed2797a930_Class27 ( Int) Bool)
(declare-fun type_00a371d5_d585_4b0f_9579_0eed2797a930_Class29 ( Int) Bool)
(declare-fun type_00a371d5_d585_4b0f_9579_0eed2797a930_Class24 ( Int) Bool)
(declare-fun type_00a371d5_d585_4b0f_9579_0eed2797a930_Class23 ( Int) Bool)
(declare-fun type_00a371d5_d585_4b0f_9579_0eed2797a930_Class26 ( Int) Bool)
(declare-fun type_00a371d5_d585_4b0f_9579_0eed2797a930_Class25 ( Int) Bool)
(declare-fun obj_acfdc329_23ca_4982_a7c3_c0a6d5db34e6 ( Int) Int)
(declare-fun oclSelect ( Int Bool) Int)
(declare-fun class22_Class22IntAttr1 ( Int) Int)
(declare-fun Enum0 ( Int) Int)
(declare-fun Enum1 ( Int) Int)
(declare-fun Enum2 ( Int) Int)
(declare-fun container_ ( Int) Int)
(declare-fun oclIncludes ( Int Int) Bool)
(declare-fun ObjAt ( Int Int) Int)

;formula(s) generated
(assert (forall ((p Int)) (=> ( type_00a371d5_d585_4b0f_9579_0eed2797a930_Class22 p )  (and (>= ( Enum1 ( obj_acfdc329_23ca_4982_a7c3_c0a6d5db34e6 p )  )  0) (<= ( Enum1 ( obj_acfdc329_23ca_4982_a7c3_c0a6d5db34e6 p )  )  4)))))
(assert (! (forall ((v Int)) (=> ( type_00a371d5_d585_4b0f_9579_0eed2797a930_Class22 v )  (or (= ( Enum1 ( obj_acfdc329_23ca_4982_a7c3_c0a6d5db34e6 v )  )  2) (and (forall ((v Int)) (=> ( type_00a371d5_d585_4b0f_9579_0eed2797a930_Class22 v )  (< ( class22_Class22IntAttr1 ( obj_acfdc329_23ca_4982_a7c3_c0a6d5db34e6 v )  )  12))) (forall ((v Int)) (=> ( type_00a371d5_d585_4b0f_9579_0eed2797a930_Class22 v )  (= ( Enum1 ( obj_acfdc329_23ca_4982_a7c3_c0a6d5db34e6 v )  )  0))))))):named l0))
(assert (! (exists ((o Int)) (and ( type_00a371d5_d585_4b0f_9579_0eed2797a930_Class0 ( obj_acfdc329_23ca_4982_a7c3_c0a6d5db34e6 o )  )  ( type_00a371d5_d585_4b0f_9579_0eed2797a930_Class25 ( obj_acfdc329_23ca_4982_a7c3_c0a6d5db34e6 o )  ) )):named c0))
(assert (! (exists ((o Int)) ( type_00a371d5_d585_4b0f_9579_0eed2797a930_Class1 ( obj_acfdc329_23ca_4982_a7c3_c0a6d5db34e6 o )  ) ):named c1))
(assert (! (exists ((o Int)) ( type_00a371d5_d585_4b0f_9579_0eed2797a930_Class10 ( obj_acfdc329_23ca_4982_a7c3_c0a6d5db34e6 o )  ) ):named c2))
(assert (! (exists ((o Int)) ( type_00a371d5_d585_4b0f_9579_0eed2797a930_Class11 ( obj_acfdc329_23ca_4982_a7c3_c0a6d5db34e6 o )  ) ):named c3))
(assert (! (exists ((o Int)) ( type_00a371d5_d585_4b0f_9579_0eed2797a930_Class12 ( obj_acfdc329_23ca_4982_a7c3_c0a6d5db34e6 o )  ) ):named c4))
(assert (! (exists ((o Int)) (and (and ( type_00a371d5_d585_4b0f_9579_0eed2797a930_Class13 ( obj_acfdc329_23ca_4982_a7c3_c0a6d5db34e6 o )  )  ( type_00a371d5_d585_4b0f_9579_0eed2797a930_Class25 ( obj_acfdc329_23ca_4982_a7c3_c0a6d5db34e6 o )  ) ) ( type_00a371d5_d585_4b0f_9579_0eed2797a930_Class0 ( obj_acfdc329_23ca_4982_a7c3_c0a6d5db34e6 o )  ) )):named c5))
(assert (! (exists ((o Int)) (and (and ( type_00a371d5_d585_4b0f_9579_0eed2797a930_Class14 ( obj_acfdc329_23ca_4982_a7c3_c0a6d5db34e6 o )  )  ( type_00a371d5_d585_4b0f_9579_0eed2797a930_Class25 ( obj_acfdc329_23ca_4982_a7c3_c0a6d5db34e6 o )  ) ) ( type_00a371d5_d585_4b0f_9579_0eed2797a930_Class17 ( obj_acfdc329_23ca_4982_a7c3_c0a6d5db34e6 o )  ) )):named c6))
(assert (! (exists ((o Int)) ( type_00a371d5_d585_4b0f_9579_0eed2797a930_Class15 ( obj_acfdc329_23ca_4982_a7c3_c0a6d5db34e6 o )  ) ):named c7))
(assert (! (exists ((o Int)) ( type_00a371d5_d585_4b0f_9579_0eed2797a930_Class16 ( obj_acfdc329_23ca_4982_a7c3_c0a6d5db34e6 o )  ) ):named c8))
(assert (! (exists ((o Int)) (and ( type_00a371d5_d585_4b0f_9579_0eed2797a930_Class17 ( obj_acfdc329_23ca_4982_a7c3_c0a6d5db34e6 o )  )  ( type_00a371d5_d585_4b0f_9579_0eed2797a930_Class25 ( obj_acfdc329_23ca_4982_a7c3_c0a6d5db34e6 o )  ) )):named c9))
(assert (! (exists ((o Int)) (and (and ( type_00a371d5_d585_4b0f_9579_0eed2797a930_Class18 ( obj_acfdc329_23ca_4982_a7c3_c0a6d5db34e6 o )  )  ( type_00a371d5_d585_4b0f_9579_0eed2797a930_Class25 ( obj_acfdc329_23ca_4982_a7c3_c0a6d5db34e6 o )  ) ) ( type_00a371d5_d585_4b0f_9579_0eed2797a930_Class17 ( obj_acfdc329_23ca_4982_a7c3_c0a6d5db34e6 o )  ) )):named c10))
(assert (! (exists ((o Int)) ( type_00a371d5_d585_4b0f_9579_0eed2797a930_Class19 ( obj_acfdc329_23ca_4982_a7c3_c0a6d5db34e6 o )  ) ):named c11))
(assert (! (exists ((o Int)) ( type_00a371d5_d585_4b0f_9579_0eed2797a930_Class2 ( obj_acfdc329_23ca_4982_a7c3_c0a6d5db34e6 o )  ) ):named c12))
(assert (! (exists ((o Int)) ( type_00a371d5_d585_4b0f_9579_0eed2797a930_Class20 ( obj_acfdc329_23ca_4982_a7c3_c0a6d5db34e6 o )  ) ):named c13))
(assert (! (exists ((o Int)) (and (and (and ( type_00a371d5_d585_4b0f_9579_0eed2797a930_Class21 ( obj_acfdc329_23ca_4982_a7c3_c0a6d5db34e6 o )  )  ( type_00a371d5_d585_4b0f_9579_0eed2797a930_Class25 ( obj_acfdc329_23ca_4982_a7c3_c0a6d5db34e6 o )  ) ) ( type_00a371d5_d585_4b0f_9579_0eed2797a930_Class13 ( obj_acfdc329_23ca_4982_a7c3_c0a6d5db34e6 o )  ) ) ( type_00a371d5_d585_4b0f_9579_0eed2797a930_Class0 ( obj_acfdc329_23ca_4982_a7c3_c0a6d5db34e6 o )  ) )):named c14))
(assert (! (exists ((o Int)) ( type_00a371d5_d585_4b0f_9579_0eed2797a930_Class22 ( obj_acfdc329_23ca_4982_a7c3_c0a6d5db34e6 o )  ) ):named c15))
(assert (! (exists ((o Int)) (and (and (and (and ( type_00a371d5_d585_4b0f_9579_0eed2797a930_Class23 ( obj_acfdc329_23ca_4982_a7c3_c0a6d5db34e6 o )  )  ( type_00a371d5_d585_4b0f_9579_0eed2797a930_Class25 ( obj_acfdc329_23ca_4982_a7c3_c0a6d5db34e6 o )  ) ) ( type_00a371d5_d585_4b0f_9579_0eed2797a930_Class13 ( obj_acfdc329_23ca_4982_a7c3_c0a6d5db34e6 o )  ) ) ( type_00a371d5_d585_4b0f_9579_0eed2797a930_Class0 ( obj_acfdc329_23ca_4982_a7c3_c0a6d5db34e6 o )  ) ) ( type_00a371d5_d585_4b0f_9579_0eed2797a930_Class21 ( obj_acfdc329_23ca_4982_a7c3_c0a6d5db34e6 o )  ) )):named c16))
(assert (! (exists ((o Int)) (and (and ( type_00a371d5_d585_4b0f_9579_0eed2797a930_Class24 ( obj_acfdc329_23ca_4982_a7c3_c0a6d5db34e6 o )  )  ( type_00a371d5_d585_4b0f_9579_0eed2797a930_Class25 ( obj_acfdc329_23ca_4982_a7c3_c0a6d5db34e6 o )  ) ) ( type_00a371d5_d585_4b0f_9579_0eed2797a930_Class0 ( obj_acfdc329_23ca_4982_a7c3_c0a6d5db34e6 o )  ) )):named c17))
(assert (! (exists ((o Int)) ( type_00a371d5_d585_4b0f_9579_0eed2797a930_Class25 ( obj_acfdc329_23ca_4982_a7c3_c0a6d5db34e6 o )  ) ):named c18))
(assert (! (exists ((o Int)) ( type_00a371d5_d585_4b0f_9579_0eed2797a930_Class26 ( obj_acfdc329_23ca_4982_a7c3_c0a6d5db34e6 o )  ) ):named c19))
(assert (! (exists ((o Int)) (and (and ( type_00a371d5_d585_4b0f_9579_0eed2797a930_Class27 ( obj_acfdc329_23ca_4982_a7c3_c0a6d5db34e6 o )  )  ( type_00a371d5_d585_4b0f_9579_0eed2797a930_Class25 ( obj_acfdc329_23ca_4982_a7c3_c0a6d5db34e6 o )  ) ) ( type_00a371d5_d585_4b0f_9579_0eed2797a930_Class17 ( obj_acfdc329_23ca_4982_a7c3_c0a6d5db34e6 o )  ) )):named c20))
(assert (! (exists ((o Int)) (and (and (and (and ( type_00a371d5_d585_4b0f_9579_0eed2797a930_Class28 ( obj_acfdc329_23ca_4982_a7c3_c0a6d5db34e6 o )  )  ( type_00a371d5_d585_4b0f_9579_0eed2797a930_Class25 ( obj_acfdc329_23ca_4982_a7c3_c0a6d5db34e6 o )  ) ) ( type_00a371d5_d585_4b0f_9579_0eed2797a930_Class13 ( obj_acfdc329_23ca_4982_a7c3_c0a6d5db34e6 o )  ) ) ( type_00a371d5_d585_4b0f_9579_0eed2797a930_Class0 ( obj_acfdc329_23ca_4982_a7c3_c0a6d5db34e6 o )  ) ) ( type_00a371d5_d585_4b0f_9579_0eed2797a930_Class21 ( obj_acfdc329_23ca_4982_a7c3_c0a6d5db34e6 o )  ) )):named c21))
(assert (! (exists ((o Int)) ( type_00a371d5_d585_4b0f_9579_0eed2797a930_Class29 ( obj_acfdc329_23ca_4982_a7c3_c0a6d5db34e6 o )  ) ):named c22))
(assert (! (exists ((o Int)) ( type_00a371d5_d585_4b0f_9579_0eed2797a930_Class3 ( obj_acfdc329_23ca_4982_a7c3_c0a6d5db34e6 o )  ) ):named c23))
(assert (! (exists ((o Int)) (and (and (and (and ( type_00a371d5_d585_4b0f_9579_0eed2797a930_Class4 ( obj_acfdc329_23ca_4982_a7c3_c0a6d5db34e6 o )  )  ( type_00a371d5_d585_4b0f_9579_0eed2797a930_Class25 ( obj_acfdc329_23ca_4982_a7c3_c0a6d5db34e6 o )  ) ) ( type_00a371d5_d585_4b0f_9579_0eed2797a930_Class24 ( obj_acfdc329_23ca_4982_a7c3_c0a6d5db34e6 o )  ) ) ( type_00a371d5_d585_4b0f_9579_0eed2797a930_Class6 ( obj_acfdc329_23ca_4982_a7c3_c0a6d5db34e6 o )  ) ) ( type_00a371d5_d585_4b0f_9579_0eed2797a930_Class0 ( obj_acfdc329_23ca_4982_a7c3_c0a6d5db34e6 o )  ) )):named c24))
(assert (! (exists ((o Int)) ( type_00a371d5_d585_4b0f_9579_0eed2797a930_Class5 ( obj_acfdc329_23ca_4982_a7c3_c0a6d5db34e6 o )  ) ):named c25))
(assert (! (exists ((o Int)) (and (and (and ( type_00a371d5_d585_4b0f_9579_0eed2797a930_Class6 ( obj_acfdc329_23ca_4982_a7c3_c0a6d5db34e6 o )  )  ( type_00a371d5_d585_4b0f_9579_0eed2797a930_Class25 ( obj_acfdc329_23ca_4982_a7c3_c0a6d5db34e6 o )  ) ) ( type_00a371d5_d585_4b0f_9579_0eed2797a930_Class24 ( obj_acfdc329_23ca_4982_a7c3_c0a6d5db34e6 o )  ) ) ( type_00a371d5_d585_4b0f_9579_0eed2797a930_Class0 ( obj_acfdc329_23ca_4982_a7c3_c0a6d5db34e6 o )  ) )):named c26))
(assert (! (exists ((o Int)) ( type_00a371d5_d585_4b0f_9579_0eed2797a930_Class7 ( obj_acfdc329_23ca_4982_a7c3_c0a6d5db34e6 o )  ) ):named c27))
(assert (! (exists ((o Int)) ( type_00a371d5_d585_4b0f_9579_0eed2797a930_Class8 ( obj_acfdc329_23ca_4982_a7c3_c0a6d5db34e6 o )  ) ):named c28))
(assert (! (exists ((o Int)) ( type_00a371d5_d585_4b0f_9579_0eed2797a930_Class9 ( obj_acfdc329_23ca_4982_a7c3_c0a6d5db34e6 o )  ) ):named c29))

 ;end of formula 